\ This file has been generated by DOcplex
\ ENCODING=ISO-8859-1
\Problem name: random_problem.lp

Minimize
 obj: - 212 x0 - 106 x1 - 53 x2 + 428 x3 + 214 x4 + 107 x5 - 220 x6 - 110 x7
      - 55 x8 + 412 x9 + 206 x10 + 103 x11 - 216 x12 - 108 x13 - 54 x14 + [
      1376 x0^2 + 1376 x0*x1 + 688 x0*x2 + 1216 x0*x3 + 608 x0*x4 + 304 x0*x5
      + 2496 x0*x6 + 1248 x0*x7 + 624 x0*x8 + 2176 x0*x9 + 1088 x0*x10
      + 544 x0*x11 + 1728 x0*x12 + 864 x0*x13 + 432 x0*x14 + 344 x1^2
      + 344 x1*x2 + 608 x1*x3 + 304 x1*x4 + 152 x1*x5 + 1248 x1*x6 + 624 x1*x7
      + 312 x1*x8 + 1088 x1*x9 + 544 x1*x10 + 272 x1*x11 + 864 x1*x12
      + 432 x1*x13 + 216 x1*x14 + 86 x2^2 + 304 x2*x3 + 152 x2*x4 + 76 x2*x5
      + 624 x2*x6 + 312 x2*x7 + 156 x2*x8 + 544 x2*x9 + 272 x2*x10 + 136 x2*x11
      + 432 x2*x12 + 216 x2*x13 + 108 x2*x14 + 4416 x3^2 + 4416 x3*x4
      + 2208 x3*x5 + 2752 x3*x6 + 1376 x3*x7 + 688 x3*x8 + 2624 x3*x9
      + 1312 x3*x10 + 656 x3*x11 + 1088 x3*x12 + 544 x3*x13 + 272 x3*x14
      + 1104 x4^2 + 1104 x4*x5 + 1376 x4*x6 + 688 x4*x7 + 344 x4*x8 + 1312 x4*x9
      + 656 x4*x10 + 328 x4*x11 + 544 x4*x12 + 272 x4*x13 + 136 x4*x14
      + 276 x5^2 + 688 x5*x6 + 344 x5*x7 + 172 x5*x8 + 656 x5*x9 + 328 x5*x10
      + 164 x5*x11 + 272 x5*x12 + 136 x5*x13 + 68 x5*x14 + 4896 x6^2
      + 4896 x6*x7 + 2448 x6*x8 + 6656 x6*x9 + 3328 x6*x10 + 1664 x6*x11
      + 2880 x6*x12 + 1440 x6*x13 + 720 x6*x14 + 1224 x7^2 + 1224 x7*x8
      + 3328 x7*x9 + 1664 x7*x10 + 832 x7*x11 + 1440 x7*x12 + 720 x7*x13
      + 360 x7*x14 + 306 x8^2 + 1664 x8*x9 + 832 x8*x10 + 416 x8*x11
      + 720 x8*x12 + 360 x8*x13 + 180 x8*x14 + 3936 x9^2 + 3936 x9*x10
      + 1968 x9*x11 + 2752 x9*x12 + 1376 x9*x13 + 688 x9*x14 + 984 x10^2
      + 984 x10*x11 + 1376 x10*x12 + 688 x10*x13 + 344 x10*x14 + 246 x11^2
      + 688 x11*x12 + 344 x11*x13 + 172 x11*x14 + 1440 x12^2 + 1440 x12*x13
      + 720 x12*x14 + 360 x13^2 + 360 x13*x14 + 90 x14^2 ]/2
Subject To
 c0: 4 x0 + 2 x1 + x2 + 4 x3 + 2 x4 + x5 + 4 x6 + 2 x7 + x8 + 4 x9 + 2 x10 + x11
     + 4 x12 + 2 x13 + x14 = 7

Bounds
 0 <= x0 <= 1
 0 <= x1 <= 1
 0 <= x2 <= 1
 0 <= x3 <= 1
 0 <= x4 <= 1
 0 <= x5 <= 1
 0 <= x6 <= 1
 0 <= x7 <= 1
 0 <= x8 <= 1
 0 <= x9 <= 1
 0 <= x10 <= 1
 0 <= x11 <= 1
 0 <= x12 <= 1
 0 <= x13 <= 1
 0 <= x14 <= 1

Binaries
 x0 x1 x2 x3 x4 x5 x6 x7 x8 x9 x10 x11 x12 x13 x14
End
